32
120
83	4
82	1
81	1
80	1
79	1
78	1
74	1
72	1
71	3
69	2
66	1
64	1
62	1
59	1
58	2
57	1
54	1
51	3
50	1
49	3
48	3
47	2
45	1
43	1
41	1
40	1
36	1
35	2
34	2
29	2
27	1
25	2
